Route #1: 6 33 63 23 56 24 49 16
Route #2: 62 22 64 42 41 43 1 73 51
Route #3: 30 74 21 61 28 2 68
Route #4: 29 37 20 70 60 71 69 36 47 48
Route #5: 46 8 54 13 57 15 5 45
Route #6: 67 34 52 27 4 75
Route #7: 26 7 53 14 59 19 35
Route #8: 11 66 65 38 58
Route #9: 40 50 18 55 25 31 10
Route #10: 12 72 39 9 32 44 3 17
Cost 830
